NAME          COPTPROB
OBJSENSE
  MIN
ROWS
 N  __OBJ___
 L  C194    
 L  C195    
 L  C231    
 L  C349    
 L  C434    
COLUMNS
    MARKER    'MARKER'                 'INTORG'
    x92       __OBJ___  -1
    x92       C231      1
    x92       C434      1
    x235      __OBJ___  -1
    x235      C195      1
    x235      C434      1
    x260      __OBJ___  -1
    x260      C195      1
    x260      C349      1
    x296      __OBJ___  -1
    x296      C194      1
    x296      C349      1
    x299      __OBJ___  -1
    x299      C194      1
    x299      C231      1
    MARKER    'MARKER'                 'INTEND'
RHS
    RHS       __OBJ___  168
    RHS       C194      1
    RHS       C195      1
    RHS       C231      1
    RHS       C349      1
    RHS       C434      1
BOUNDS
 UP BOUND     x92       1
 UP BOUND     x235      1
 UP BOUND     x260      1
 UP BOUND     x296      1
 UP BOUND     x299      1
ENDATA
